<instance format="XCSP3" type="CSP">
  <variables>
    <var id="x" note="x is a number between 1 and 10"> 1..10 </var>
    <var id="y" note="y denotes the square of x"> 1..100 </var>
  </variables>
  <constraints>
    <intension note="this constraint links x and y"> 
      eq(y,mul(x,x)) 
    </intension>
  </constraints>
</instance>
